letting n_nurses=25
letting n_days=7
letting n_shift_types=4
letting max_covers=15
letting t_covers=87
letting covers=[11,1,4,0,12,10,0,0,15,3,4,0,1,1,0,0,0,2,1,0,0,7,11,0,2,2,0,0]
letting prefes=[4,2,1,3,1,3,4,1,4,2,1,3,4,2,1,3,1,3,4,1,1,3,4,1,4,2,1,3,1,1,2,3,3,3,1,2,1,1,2,3,1,1,2,3,3,3,1,2,3,3,1,2,1,1,2,3,1,2,1,3,3,3,1,2,1,2,1,3,1,2,1,3,3,3,1,2,3,3,1,2,1,2,1,3,2,1,1,1,3,3,1,2,2,1,1,1,2,1,1,1,3,3,1,2,3,3,1,2,2,1,1,1,1,2,1,3,3,3,1,2,1,2,1,3,1,2,1,3,3,3,1,2,3,3,1,2,1,2,1,3,1,2,1,3,3,1,4,2,1,2,1,3,1,2,1,3,3,1,4,2,3,1,4,2,1,2,1,3,1,2,1,1,3,1,1,2,1,2,1,1,1,2,1,1,3,1,1,2,3,1,1,2,1,2,1,1,1,2,1,3,3,3,1,2,1,2,1,3,1,2,1,3,3,3,1,2,3,3,1,2,1,2,1,3,2,1,1,3,3,1,4,2,2,1,1,3,2,1,1,3,3,1,4,2,3,1,4,2,2,1,1,3,1,2,1,3,3,3,1,2,1,2,1,3,1,2,1,3,3,3,1,2,3,3,1,2,1,2,1,3,1,2,1,3,1,3,4,2,1,2,1,3,1,2,1,3,1,3,4,2,1,3,4,2,1,2,1,3,1,2,1,3,3,3,1,2,1,2,1,3,1,2,1,3,3,3,1,2,3,3,1,2,1,2,1,3,1,2,1,3,3,3,1,2,1,2,1,3,1,2,1,3,3,3,1,2,3,3,1,2,1,2,1,3,1,2,1,3,1,3,1,1,1,2,1,3,1,2,1,3,1,3,1,1,1,3,1,1,1,2,1,3,1,2,1,3,1,3,1,2,1,2,1,3,1,2,1,3,1,3,1,2,1,3,1,2,1,2,1,3,4,2,1,3,1,3,1,2,4,2,1,3,4,2,1,3,1,3,1,2,1,3,1,2,4,2,1,3,1,1,2,3,3,1,1,2,1,1,2,3,1,1,2,3,3,1,1,2,3,1,1,2,1,1,2,3,1,1,2,1,3,1,1,1,1,1,2,1,1,1,2,1,3,1,1,1,3,1,1,1,1,1,2,1,1,2,1,3,3,3,1,2,1,2,1,3,1,2,1,3,3,3,1,2,3,3,1,2,1,2,1,3,1,2,1,3,3,3,1,1,1,2,1,3,1,2,1,3,3,3,1,1,3,3,1,1,1,2,1,3,1,2,1,1,3,3,1,2,1,2,1,1,1,2,1,1,3,3,1,2,3,3,1,2,1,2,1,1,1,2,2,3,3,3,1,2,1,2,2,3,1,2,2,3,3,3,1,2,3,3,1,2,1,2,2,3,1,2,1,3,3,3,4,1,1,2,1,3,1,2,1,3,3,3,4,1,3,3,4,1,1,2,1,3,4,2,2,1,3,3,1,2,4,2,2,1,4,2,2,1,3,3,1,2,3,3,1,2,4,2,2,1,1,2,1,3,3,3,1,2,1,2,1,3,1,2,1,3,3,3,1,2,3,3,1,2,1,2,1,3]
letting ub =  257
